(set-option :produce-models true); benchmark generated from python API
(set-info :status unknown)
(declare-fun l_1_0_9 () Real)
(declare-fun l_1_0_8 () Real)
(declare-fun l_1_0_7 () Real)
(declare-fun l_1_0_6 () Real)
(declare-fun l_1_0_5 () Real)
(declare-fun l_1_0_4 () Real)
(declare-fun l_1_0_3 () Real)
(declare-fun l_1_0_2 () Real)
(declare-fun l_1_0_1 () Real)
(declare-fun _a_0_ () Real)
(declare-fun l_1_0_11 () Real)
(declare-fun l_1_0_10 () Real)
(declare-fun _a_1_ () Real)
(declare-fun l_1_0_14 () Real)
(declare-fun l_1_0_13 () Real)
(declare-fun l_1_0_12 () Real)
(declare-fun _a_2_ () Real)
(declare-fun _a_3_ () Real)
(declare-fun _a_4_ () Real)
(declare-fun _a_5_ () Real)
(declare-fun l_1_1_9 () Real)
(declare-fun l_1_1_8 () Real)
(declare-fun l_1_1_7 () Real)
(declare-fun l_1_1_3 () Real)
(declare-fun l_1_1_2 () Real)
(declare-fun l_1_1_15 () Real)
(declare-fun l_1_1_14 () Real)
(declare-fun l_1_1_13 () Real)
(declare-fun l_1_1_10 () Real)
(declare-fun l_1_1_1 () Real)
(declare-fun l_1_1_6 () Real)
(declare-fun l_1_1_5 () Real)
(declare-fun l_1_1_4 () Real)
(declare-fun l_1_1_12 () Real)
(declare-fun l_1_1_11 () Real)
(declare-fun l_1_1_20 () Real)
(declare-fun l_1_1_19 () Real)
(declare-fun l_1_1_18 () Real)
(declare-fun l_1_1_17 () Real)
(declare-fun l_1_1_16 () Real)
(declare-fun l_1_2_9 () Real)
(declare-fun l_1_2_8 () Real)
(declare-fun l_1_2_7 () Real)
(declare-fun l_1_2_6 () Real)
(declare-fun l_1_2_2 () Real)
(declare-fun l_1_2_15 () Real)
(declare-fun l_1_2_14 () Real)
(declare-fun l_1_2_11 () Real)
(declare-fun l_1_2_10 () Real)
(declare-fun l_1_2_1 () Real)
(declare-fun l_1_2_5 () Real)
(declare-fun l_1_2_4 () Real)
(declare-fun l_1_2_3 () Real)
(declare-fun l_1_2_13 () Real)
(declare-fun l_1_2_12 () Real)
(declare-fun l_1_2_17 () Real)
(declare-fun l_1_2_16 () Real)
(declare-fun l_1_2_19 () Real)
(declare-fun l_1_2_18 () Real)
(declare-fun l_1_2_20 () Real)
(assert
 (let ((?x43 (* l_1_0_9 l_1_0_9)))
 (let ((?x1541 (* (/ 1.0 8.0) l_1_0_7)))
 (let ((?x49 (* (/ 1.0 8.0) l_1_0_5)))
 (let ((?x52 (* (/ 1.0 64.0) l_1_0_4)))
 (let ((?x1542 (- (- (- (- (- _a_0_ l_1_0_1) (* (/ 1.0 8.0) l_1_0_2)) l_1_0_3) ?x52) ?x49)))
 (= (- (- (- (- ?x1542 l_1_0_6) ?x1541) l_1_0_8) ?x43) 0.0)))))))
(assert
 (let ((?x1297 (* (/ 3.0 4.0) l_1_0_4)))
 (let ((?x1295 (+ (- (- _a_1_ (* l_1_0_10 l_1_0_10)) (* l_1_0_11 l_1_0_11)) l_1_0_2)))
 (= (+ (+ (- ?x1295 ?x1297) l_1_0_5) l_1_0_7) 0.0))))
(assert
 (let ((?x1297 (* (/ 3.0 4.0) l_1_0_4)))
 (let ((?x50 (* l_1_0_14 l_1_0_14)))
 (let ((?x1030 (- (- (- _a_2_ (* l_1_0_12 l_1_0_12)) (* l_1_0_13 l_1_0_13)) ?x50)))
 (= (+ (+ (- (+ ?x1030 l_1_0_2) ?x1297) l_1_0_5) l_1_0_7) 0.0)))))
(assert
 (let ((?x1114 (* 1.0 l_1_0_7)))
 (let ((?x1112 (* 1.0 l_1_0_5)))
 (let ((?x1207 (* (/ 1.0 4.0) l_1_0_4)))
 (let ((?x48 (* 1.0 l_1_0_2)))
 (let ((?x1113 (- (- (- (- _a_3_ (* (* 2.0 l_1_0_10) l_1_0_9)) ?x48) ?x1207) ?x1112)))
 (= (- ?x1113 ?x1114) 0.0)))))))
(assert
 (let ((?x1140 (* 2.0 l_1_0_4)))
 (let ((?x1139 (- (- _a_4_ (* (* 2.0 l_1_0_10) l_1_0_12)) (* (* 2.0 l_1_0_11) l_1_0_13))))
 (= (- ?x1139 ?x1140) 0.0))))
(assert
 (let ((?x1114 (* 1.0 l_1_0_7)))
 (let ((?x1112 (* 1.0 l_1_0_5)))
 (let ((?x1207 (* (/ 1.0 4.0) l_1_0_4)))
 (let ((?x48 (* 1.0 l_1_0_2)))
 (let ((?x1034 (- (- (- (- _a_5_ (* (* 2.0 l_1_0_12) l_1_0_9)) ?x48) ?x1207) ?x1112)))
 (= (- ?x1034 ?x1114) 0.0)))))))
(assert
 (= (- l_1_0_4) 0.0))
(assert
 (let ((?x1140 (* 2.0 l_1_0_4)))
 (= ?x1140 0.0)))
(assert
 (let ((?x1024 (* (- 2.0) l_1_0_4)))
 (= ?x1024 0.0)))
(assert
 (let ((?x1140 (* 2.0 l_1_0_4)))
 (= ?x1140 0.0)))
(assert
 (let ((?x1140 (* 2.0 l_1_0_4)))
 (= ?x1140 0.0)))
(assert
 (= (- l_1_0_4) 0.0))
(assert
 (let ((?x1140 (* 2.0 l_1_0_4)))
 (= ?x1140 0.0)))
(assert
 (>= l_1_0_1 0.0))
(assert
 (>= l_1_0_2 0.0))
(assert
 (>= l_1_0_3 0.0))
(assert
 (>= l_1_0_4 0.0))
(assert
 (>= l_1_0_5 0.0))
(assert
 (>= l_1_0_6 0.0))
(assert
 (>= l_1_0_7 0.0))
(assert
 (>= l_1_0_8 0.0))
(assert
 (>= l_1_0_9 0.0))
(assert
 (>= l_1_0_11 0.0))
(assert
 (>= l_1_0_14 0.0))
(assert
 (let ((?x31 (* l_1_1_15 l_1_1_15)))
 (let ((?x932 (* _a_0_ l_1_1_5)))
 (let ((?x931 (+ (- (* (- _a_0_) l_1_1_11) (* _a_0_ l_1_1_12)) (* (* 1.0 _a_0_) l_1_1_4))))
 (let ((?x923 (+ (+ (- ?x931 ?x932) (* (* 1.0 _a_0_) l_1_1_6)) (* 1.0 l_1_1_1))))
 (let ((?x29 (- (- (- (+ (- ?x923 l_1_1_10) (* 1.0 l_1_1_13)) l_1_1_14) ?x31) l_1_1_2)))
 (let ((?x916 (+ (- (- ?x29 (* 1.0 l_1_1_3)) (* (* l_1_1_7 _a_0_) _a_0_)) (* 1.0 l_1_1_8))))
 (= (+ (- ?x916 l_1_1_9) 4.0) 0.0))))))))
(assert
 (let ((?x576 (* l_1_1_20 l_1_1_20)))
 (let ((?x648 (* l_1_1_19 l_1_1_19)))
 (let ((?x646 (* l_1_1_18 l_1_1_18)))
 (let ((?x673 (* _a_2_ l_1_1_5)))
 (let ((?x672 (+ (- (* (- _a_2_) l_1_1_11) (* _a_2_ l_1_1_12)) (* (* 1.0 _a_2_) l_1_1_4))))
 (let ((?x649 (- (- (+ (- ?x672 ?x673) (* (* 1.0 _a_2_) l_1_1_6)) ?x646) ?x648)))
 (let ((?x413 (- (- ?x649 ?x576) (* l_1_1_7 (+ (* (* 2.0 _a_0_) _a_2_) (* _a_5_ _a_5_))))))
 (= (- ?x413 1.0) 0.0)))))))))
(assert
 (let ((?x408 (* l_1_1_17 l_1_1_17)))
 (let ((?x475 (* l_1_1_16 l_1_1_16)))
 (let ((?x471 (* _a_1_ l_1_1_5)))
 (let ((?x469 (+ (- (* (- _a_1_) l_1_1_11) (* _a_1_ l_1_1_12)) (* (* 1.0 _a_1_) l_1_1_4))))
 (let ((?x409 (- (- (+ (- ?x469 ?x471) (* (* 1.0 _a_1_) l_1_1_6)) ?x475) ?x408)))
 (let ((?x416 (- ?x409 (* l_1_1_7 (+ (* (* 2.0 _a_0_) _a_1_) (* _a_3_ _a_3_))))))
 (= ?x416 0.0))))))))
(assert
 (let ((?x98 (* _a_3_ l_1_1_5)))
 (let ((?x300 (* _a_3_ l_1_1_12)))
 (let ((?x12 (* _a_3_ l_1_1_11)))
 (let ((?x327 (+ (- (- (* (* (* (- 2.0) _a_0_) _a_3_) l_1_1_7) ?x12) ?x300) (* (* 1.0 _a_3_) l_1_1_4))))
 (let ((?x342 (- (+ (- ?x327 ?x98) (* (* 1.0 _a_3_) l_1_1_6)) (* (* 2.0 l_1_1_15) l_1_1_16))))
 (= ?x342 0.0)))))))
(assert
 (let ((?x225 (+ (* (* 2.0 _a_0_) _a_4_) (* (* 2.0 _a_3_) _a_5_))))
 (let ((?x266 (* _a_4_ l_1_1_5)))
 (let ((?x195 (+ (- (* (- _a_4_) l_1_1_11) (* _a_4_ l_1_1_12)) (* (* 1.0 _a_4_) l_1_1_4))))
 (let ((?x224 (- (+ (- ?x195 ?x266) (* (* 1.0 _a_4_) l_1_1_6)) (* (* 2.0 l_1_1_16) l_1_1_18))))
 (= (- (- ?x224 (* (* 2.0 l_1_1_17) l_1_1_19)) (* l_1_1_7 ?x225)) 0.0))))))
(assert
 (let ((?x1182 (* _a_5_ l_1_1_5)))
 (let ((?x1174 (* _a_5_ l_1_1_12)))
 (let ((?x1170 (* _a_5_ l_1_1_11)))
 (let ((?x1180 (+ (- (- (* (* (* (- 2.0) _a_0_) _a_5_) l_1_1_7) ?x1170) ?x1174) (* (* 1.0 _a_5_) l_1_1_4))))
 (let ((?x275 (- (+ (- ?x1180 ?x1182) (* (* 1.0 _a_5_) l_1_1_6)) (* (* 2.0 l_1_1_15) l_1_1_18))))
 (= ?x275 0.0)))))))
(assert
 (= (* (* (- l_1_1_7) _a_1_) _a_1_) 0.0))
(assert
 (let ((?x114 (* _a_4_ _a_4_)))
 (let ((?x352 (+ (* (* 2.0 _a_1_) _a_2_) ?x114)))
 (let ((?x1164 (- l_1_1_7)))
 (= (* ?x1164 ?x352) 0.0)))))
(assert
 (= (* (* (* (- 2.0) _a_1_) _a_3_) l_1_1_7) 0.0))
(assert
 (= (* (* (* (- 2.0) _a_1_) _a_4_) l_1_1_7) 0.0))
(assert
 (let ((?x1081 (+ (* (* 2.0 _a_1_) _a_5_) (* (* 2.0 _a_3_) _a_4_))))
 (let ((?x1164 (- l_1_1_7)))
 (= (* ?x1164 ?x1081) 0.0))))
(assert
 (= (* (* (- l_1_1_7) _a_2_) _a_2_) 0.0))
(assert
 (let ((?x551 (+ (* (* 2.0 _a_2_) _a_3_) (* (* 2.0 _a_4_) _a_5_))))
 (let ((?x1164 (- l_1_1_7)))
 (= (* ?x1164 ?x551) 0.0))))
(assert
 (= (* (* (* (- 2.0) _a_2_) _a_4_) l_1_1_7) 0.0))
(assert
 (= (* (* (* (- 2.0) _a_2_) _a_5_) l_1_1_7) 0.0))
(assert
 (>= l_1_1_1 0.0))
(assert
 (>= l_1_1_2 0.0))
(assert
 (>= l_1_1_3 0.0))
(assert
 (>= l_1_1_4 0.0))
(assert
 (>= l_1_1_5 0.0))
(assert
 (>= l_1_1_6 0.0))
(assert
 (>= l_1_1_7 0.0))
(assert
 (>= l_1_1_8 0.0))
(assert
 (>= l_1_1_9 0.0))
(assert
 (>= l_1_1_10 0.0))
(assert
 (>= l_1_1_11 0.0))
(assert
 (>= l_1_1_12 0.0))
(assert
 (>= l_1_1_13 0.0))
(assert
 (>= l_1_1_14 0.0))
(assert
 (>= l_1_1_15 0.0))
(assert
 (>= l_1_1_17 0.0))
(assert
 (>= l_1_1_20 0.0))
(assert
 (let ((?x272 (* l_1_2_15 l_1_2_15)))
 (let ((?x1251 (* _a_0_ l_1_2_4)))
 (let ((?x483 (- (- (* (- _a_0_) l_1_2_12) (* _a_0_ l_1_2_13)) (* (* 1.0 _a_0_) l_1_2_3))))
 (let ((?x1257 (- (+ (- (- ?x483 ?x1251) (* (* 1.0 _a_0_) l_1_2_5)) _a_0_) (* 1.0 l_1_2_1))))
 (let ((?x1184 (- (- (- (- (- ?x1257 (* 1.0 l_1_2_10)) l_1_2_11) l_1_2_14) ?x272) (* 1.0 l_1_2_2))))
 (let ((?x1482 (- (- (- ?x1184 (* 1.0 l_1_2_6)) (* (* l_1_2_7 _a_0_) _a_0_)) l_1_2_8)))
 (= (- ?x1482 l_1_2_9) 0.0))))))))
(assert
 (let ((?x118 (* l_1_2_17 l_1_2_17)))
 (let ((?x636 (* l_1_2_16 l_1_2_16)))
 (let ((?x633 (* (/ 888888888888889.0 10000000000000000.0) _a_4_)))
 (let ((?x634 (* (/ 1.0 100.0) _a_2_)))
 (let ((?x626 (* (/ 790123456790123.0 1000000000000000.0) _a_1_)))
 (let ((?x560 (* _a_1_ l_1_2_4)))
 (let ((?x1470 (- (- (* (- _a_1_) l_1_2_12) (* _a_1_ l_1_2_13)) (* (* 1.0 _a_1_) l_1_2_3))))
 (let ((?x638 (+ (+ (- (- ?x1470 ?x560) (* (* 1.0 _a_1_) l_1_2_5)) ?x626) ?x634)))
 (let ((?x1078 (- (- (- (+ ?x638 ?x633) ?x636) ?x118) (* l_1_2_7 (+ (* (* 2.0 _a_0_) _a_1_) (* _a_3_ _a_3_))))))
 (= ?x1078 0.0)))))))))))
(assert
 (let ((?x225 (+ (* (* 2.0 _a_0_) _a_4_) (* (* 2.0 _a_3_) _a_5_))))
 (let ((?x837 (* (/ 198611111111111.0 250000000000000.0) _a_4_)))
 (let ((?x449 (* _a_4_ l_1_2_4)))
 (let ((?x1094 (* _a_4_ l_1_2_13)))
 (let ((?x1090 (- (- (+ (* (- (/ 493827160493827.0 5000000000000000.0)) _a_1_) (* (/ 9.0 50.0) _a_2_)) (* _a_4_ l_1_2_12)) ?x1094)))
 (let ((?x445 (- (- (- ?x1090 (* (* 1.0 _a_4_) l_1_2_3)) ?x449) (* (* 1.0 _a_4_) l_1_2_5))))
 (let ((?x1262 (- (- (+ ?x445 ?x837) (* (* 2.0 l_1_2_16) l_1_2_18)) (* (* 2.0 l_1_2_17) l_1_2_19))))
 (= (- ?x1262 (* l_1_2_7 ?x225)) 0.0)))))))))
(assert
 (let ((?x1362 (* l_1_2_20 l_1_2_20)))
 (let ((?x1360 (* l_1_2_19 l_1_2_19)))
 (let ((?x769 (* l_1_2_18 l_1_2_18)))
 (let ((?x767 (* (/ 1.0 20.0) _a_4_)))
 (let ((?x658 (* (/ 81.0 100.0) _a_2_)))
 (let ((?x651 (* _a_2_ l_1_2_4)))
 (let ((?x284 (* _a_2_ l_1_2_13)))
 (let ((?x282 (- (- (- (* (/ 154320987654321.0 50000000000000000.0) _a_1_) (* _a_2_ l_1_2_12)) ?x284) (* (* 1.0 _a_2_) l_1_2_3))))
 (let ((?x768 (- (+ (- (- ?x282 ?x651) (* (* 1.0 _a_2_) l_1_2_5)) ?x658) ?x767)))
 (let ((?x1369 (- (- (- (- ?x768 ?x769) ?x1360) ?x1362) (* l_1_2_7 (+ (* (* 2.0 _a_0_) _a_2_) (* _a_5_ _a_5_))))))
 (= ?x1369 0.0))))))))))))
(assert
 (let ((?x1213 (* (/ 1.0 10.0) _a_5_)))
 (let ((?x1220 (* (/ 888888888888889.0 1000000000000000.0) _a_3_)))
 (let ((?x1209 (* _a_3_ l_1_2_4)))
 (let ((?x774 (* _a_3_ l_1_2_13)))
 (let ((?x766 (* _a_3_ l_1_2_12)))
 (let ((?x1208 (- (- (- (* (* (* (- 2.0) _a_0_) _a_3_) l_1_2_7) ?x766) ?x774) (* (* 1.0 _a_3_) l_1_2_3))))
 (let ((?x1212 (+ (+ (- (- ?x1208 ?x1209) (* (* 1.0 _a_3_) l_1_2_5)) ?x1220) ?x1213)))
 (= (- ?x1212 (* (* 2.0 l_1_2_15) l_1_2_16)) 0.0)))))))))
(assert
 (let ((?x738 (* (/ 9.0 10.0) _a_5_)))
 (let ((?x734 (* _a_5_ l_1_2_4)))
 (let ((?x1448 (* _a_5_ l_1_2_13)))
 (let ((?x249 (* _a_5_ l_1_2_12)))
 (let ((?x250 (- (- (* (* (* (- 2.0) _a_0_) _a_5_) l_1_2_7) (* (/ 138888888888889.0 2500000000000000.0) _a_3_)) ?x249)))
 (let ((?x737 (- (- (- (- ?x250 ?x1448) (* (* 1.0 _a_5_) l_1_2_3)) ?x734) (* (* 1.0 _a_5_) l_1_2_5))))
 (= (- (+ ?x737 ?x738) (* (* 2.0 l_1_2_15) l_1_2_18)) 0.0))))))))
(assert
 (= (* (* (- l_1_2_7) _a_1_) _a_1_) 0.0))
(assert
 (let ((?x114 (* _a_4_ _a_4_)))
 (let ((?x352 (+ (* (* 2.0 _a_1_) _a_2_) ?x114)))
 (let ((?x1284 (- l_1_2_7)))
 (= (* ?x1284 ?x352) 0.0)))))
(assert
 (= (* (* (* (- 2.0) _a_1_) _a_3_) l_1_2_7) 0.0))
(assert
 (= (* (* (* (- 2.0) _a_1_) _a_4_) l_1_2_7) 0.0))
(assert
 (let ((?x1081 (+ (* (* 2.0 _a_1_) _a_5_) (* (* 2.0 _a_3_) _a_4_))))
 (let ((?x1284 (- l_1_2_7)))
 (= (* ?x1284 ?x1081) 0.0))))
(assert
 (= (* (* (- l_1_2_7) _a_2_) _a_2_) 0.0))
(assert
 (let ((?x551 (+ (* (* 2.0 _a_2_) _a_3_) (* (* 2.0 _a_4_) _a_5_))))
 (let ((?x1284 (- l_1_2_7)))
 (= (* ?x1284 ?x551) 0.0))))
(assert
 (= (* (* (* (- 2.0) _a_2_) _a_4_) l_1_2_7) 0.0))
(assert
 (= (* (* (* (- 2.0) _a_2_) _a_5_) l_1_2_7) 0.0))
(assert
 (>= l_1_2_1 0.0))
(assert
 (>= l_1_2_2 0.0))
(assert
 (>= l_1_2_3 0.0))
(assert
 (>= l_1_2_4 0.0))
(assert
 (>= l_1_2_5 0.0))
(assert
 (>= l_1_2_6 0.0))
(assert
 (>= l_1_2_7 0.0))
(assert
 (>= l_1_2_8 0.0))
(assert
 (>= l_1_2_9 0.0))
(assert
 (>= l_1_2_10 0.0))
(assert
 (>= l_1_2_11 0.0))
(assert
 (>= l_1_2_12 0.0))
(assert
 (>= l_1_2_13 0.0))
(assert
 (>= l_1_2_14 0.0))
(assert
 (>= l_1_2_15 0.0))
(assert
 (>= l_1_2_17 0.0))
(assert
 (>= l_1_2_20 0.0))
(check-sat)
(get-model)